Gurobi Optimizer version 9.1.2 build v9.1.2rc0 (linux64)
Thread count: 36 physical cores, 72 logical processors, using up to 32 threads
Optimize a model with 12 rows, 57 columns and 590 nonzeros
Model fingerprint: 0xf32eec78
Model has 47 quadratic constraints
Coefficient statistics:
  Matrix range     [2e-05, 3e+00]
  QMatrix range    [1e+00, 1e+00]
  QLMatrix range   [1e+00, 1e+00]
  Objective range  [8e-03, 7e-01]
  Bounds range     [1e+00, 1e+00]
  RHS range        [1e+00, 1e+00]
Presolve removed 9 rows and 0 columns

Continuous model is non-convex -- solving as a MIP.

Presolve removed 9 rows and 0 columns
Presolve time: 0.00s
Presolved: 189 rows, 57 columns, 443 nonzeros
Presolved model has 47 bilinear constraint(s)
Variable types: 57 continuous, 0 integer (0 binary)

Root relaxation: objective -1.743721e+00, 44 iterations, 0.00 seconds

    Nodes    |    Current Node    |     Objective Bounds      |     Work
 Expl Unexpl |  Obj  Depth IntInf | Incumbent    BestBd   Gap | It/Node Time

     0     0   -1.74372    0   38          -   -1.74372      -     -    0s
H    0     0                       0.6147548   -1.74372   384%     -    0s
     0     0   -1.64739    0    1    0.61475   -1.64739   368%     -    0s
H    0     0                      -1.6450460   -1.64739  0.14%     -    0s
     0     0     cutoff    0        -1.64505   -1.64505  0.00%     -    0s

Cutting planes:
  RLT: 25
  BQP: 3

Explored 1 nodes (76 simplex iterations) in 0.01 seconds
Thread count was 32 (of 72 available processors)

Solution count 2: -1.64505 0.614755 
No other solutions better than -1.64505

Optimal solution found (tolerance 1.00e-04)
Best objective -1.645045978473e+00, best bound -1.645045978473e+00, gap 0.0000%

User-callback calls 78, time in user-callback 0.00 sec
Gurobi Optimizer version 9.1.2 build v9.1.2rc0 (linux64)
Thread count: 36 physical cores, 72 logical processors, using up to 32 threads
Optimize a model with 60 rows, 312 columns and 16100 nonzeros
Model fingerprint: 0x3b66f678
Model has 262 quadratic constraints
Coefficient statistics:
  Matrix range     [4e-07, 7e+00]
  QMatrix range    [1e+00, 1e+00]
  QLMatrix range   [1e+00, 1e+00]
  Objective range  [5e-03, 2e+00]
  Bounds range     [1e+00, 1e+00]
  RHS range        [1e+00, 1e+00]
Presolve removed 16 rows and 0 columns

Continuous model is non-convex -- solving as a MIP.

Presolve removed 16 rows and 0 columns
Presolve time: 0.01s
Presolved: 1080 rows, 312 columns, 13135 nonzeros
Presolved model has 262 bilinear constraint(s)
Variable types: 312 continuous, 0 integer (0 binary)

Root relaxation: objective -2.733256e+01, 358 iterations, 0.02 seconds

    Nodes    |    Current Node    |     Objective Bounds      |     Work
 Expl Unexpl |  Obj  Depth IntInf | Incumbent    BestBd   Gap | It/Node Time

     0     0  -27.33256    0  183          -  -27.33256      -     -    0s
     0     0  -26.10390    0   73          -  -26.10390      -     -    0s
     0     0  -26.07868    0   70          -  -26.07868      -     -    0s
     0     0  -26.03117    0   86          -  -26.03117      -     -    0s
     0     0  -26.01049    0   74          -  -26.01049      -     -    0s
     0     0  -26.00276    0   74          -  -26.00276      -     -    0s
     0     0  -25.99746    0   81          -  -25.99746      -     -    0s
     0     0  -25.98892    0   74          -  -25.98892      -     -    0s
     0     0  -25.98775    0   74          -  -25.98775      -     -    0s
     0     0  -25.98485    0   74          -  -25.98485      -     -    0s
     0     0  -25.98406    0   74          -  -25.98406      -     -    0s
     0     0  -25.98254    0   74          -  -25.98254      -     -    0s
     0     0  -25.98169    0   74          -  -25.98169      -     -    0s
     0     0  -25.98074    0   74          -  -25.98074      -     -    0s
     0     0  -25.98054    0   74          -  -25.98054      -     -    0s
     0     0  -25.97952    0   74          -  -25.97952      -     -    0s
     0     0  -25.97952    0   74          -  -25.97952      -     -    0s
     0     0  -25.97910    0   74          -  -25.97910      -     -    0s
     0     0  -25.97903    0   74          -  -25.97903      -     -    0s
     0     0  -25.97882    0   74          -  -25.97882      -     -    0s
H    0     0                     -23.1854455  -25.97882  12.0%     -    0s
H    0     0                     -23.2896864  -25.97882  11.5%     -    0s
     0     2  -25.97882    0   74  -23.28969  -25.97882  11.5%     -    0s
* 1373  1283              55     -23.2908294  -24.85465  6.71%  60.0    1s
* 1374  1283              55     -23.2908300  -24.85465  6.71%  60.0    1s
* 1746  1633              56     -23.2909352  -24.85465  6.71%  53.7    1s
* 1776  1633              57     -23.2914089  -24.85465  6.71%  53.3    1s
* 1777  1633              57     -23.2914300  -24.85465  6.71%  53.3    1s
* 2113  1898              64     -23.2935135  -24.85465  6.70%  49.0    2s
* 2114  1898              64     -23.2935135  -24.85465  6.70%  48.9    2s
* 2115  1898              63     -23.2935162  -24.85465  6.70%  48.9    2s
* 2259  1914             103     -23.9433073  -24.85465  3.81%  47.3    2s
* 2260  1914             103     -23.9433094  -24.85465  3.81%  47.3    2s
* 2289  1779              56     -24.1619256  -24.85465  2.87%  47.1    2s
* 2540  1848              58     -24.2398748  -24.77963  2.23%  46.9    2s
* 2541  1848              58     -24.2399219  -24.77963  2.23%  46.9    2s
* 3531  1842              59     -24.2958885  -24.72703  1.77%  46.4    2s
* 7034  1792              50     -24.3036591  -24.45769  0.63%  42.6    4s
* 7035  1792              51     -24.3036603  -24.45769  0.63%  42.6    4s
* 7692  1707              56     -24.3058486  -24.42071  0.47%  41.9    4s
  9796  1736  -24.31063   21   29  -24.30585  -24.36995  0.26%  40.0    5s
*17325  1652              67     -24.3059690  -24.32845  0.09%  33.2    6s
*17326  1652              67     -24.3059692  -24.32845  0.09%  33.2    6s
*17329  1652              68     -24.3060758  -24.32845  0.09%  33.2    6s
*17376  1652              68     -24.3061089  -24.32837  0.09%  33.2    6s
*17512  1652              69     -24.3061102  -24.32824  0.09%  33.1    6s
*17513  1652              69     -24.3061178  -24.32824  0.09%  33.1    6s
*17631  1652              68     -24.3061326  -24.32761  0.09%  33.0    6s
*17795  1652              67     -24.3061606  -24.32742  0.09%  32.9    6s
*21764  1708              54     -24.3067396  -24.31973  0.05%  30.7    7s
*21767  1708              55     -24.3067407  -24.31973  0.05%  30.7    7s
*22068  1708              56     -24.3067434  -24.31973  0.05%  30.5    7s
*23901  1609              49     -24.3068413  -24.31785  0.05%  29.6    7s
*27003  1458              51     -24.3069901  -24.31347  0.03%  28.2    8s
*27004  1458              51     -24.3069904  -24.31347  0.03%  28.2    8s
*27011  1458              51     -24.3069997  -24.31347  0.03%  28.2    8s
*29688  1328              57     -24.3070503  -24.31085  0.02%  27.2    8s
*29921  1328              56     -24.3070713  -24.31076  0.02%  27.1    8s
*31689  1232              56     -24.3070765  -24.30969  0.01%  26.2    9s

Cutting planes:
  RLT: 42
  BQP: 5
  PSD: 118

Explored 32581 nodes (842371 simplex iterations) in 9.12 seconds
Thread count was 32 (of 72 available processors)

Solution count 10: -24.3071 -24.3071 -24.3071 ... -24.3062

Optimal solution found (tolerance 1.00e-04)
Best objective -2.430707649866e+01, best bound -2.430935394774e+01, gap 0.0094%

User-callback calls 66175, time in user-callback 0.01 sec



objective value: -24.30707649865585
objective bound: -24.309353947737517
x_opt: [1.0, 0.945164424268529, 0.0, 0.46264109655219765, 0.0, 0.0, 1.0, 0.0, 0.0, 0.0, 1.0, 0.0, 1.0, 1.0, 0.48622772608158193, 1.0, 0.0, 1.0, 0.0, 0.0, 0.26411924349504445, 0.239136165249006, 0.0, 0.5690071178197494, 0.0, 0.784231544720443, 0.0, 1.0, 0.0, 0.0, 1.0, 1.0, 0.0, 0.49320235785759936, 1.0, 0.9346980309166909, 0.0, 1.0, 0.0, 1.0, 1.0, 0.0, 1.0, 0.08424330572714028, 0.0, 0.0, 0.49241769545788244, 0.4281223052801951, 0.3362956831034009, 0.0]
GUROBI solution time: 9.11946702003479




